\ENCODING=ISO-8859-1
\Problem name: ilog.cplex

Minimize
 obj: x30 + x29 + x28 + x27 + x26 + x25 + x24 + x23 + x22 + x21 + x20 + x19
      + x18 + x17 + x16 + x15 + x14 + x13 + x12 + x11 + x10 + x9 + x8 + x7 + x6
      + x5 + x4 + x3 + x2 + x1
Subject To
 cover1:  x26 + x21 + x12 + x2 + x1 >= 1
 cover2:  x27 + x24 + x23 >= 1
 cover3:  x9 + x8 >= 1
 cover4:  x30 + x14 + x8 + x7 >= 1
 cover5:  x18 + x14 + x3 >= 1
 cover6:  x21 + x15 + x14 + x6 + x5 >= 1
 cover7:  x25 + x21 + x10 + x8 >= 1
 cover8:  x20 + x19 >= 1
 cover9:  x19 >= 1
 cover10: x30 + x16 + x15 + x4 >= 1
 cover11: x29 + x16 + x10 + x9 >= 1
 cover12: x28 + x1 >= 1
 cover13: x27 + x17 + x5 + x1 >= 1
 cover14: x13 + x12 >= 1
 cover15: x20 >= 1
 cover16: x27 + x26 >= 1
 cover17: x22 >= 1
 cover18: x24 + x19 + x6 + x1 >= 1
 cover19: x15 + x11 + x8 >= 1
 cover20: x28 >= 1
 cover21: x22 + x2 >= 1
 cover22: x18 + x16 + x12 >= 1
 cover23: x26 + x24 + x15 + x10 + x3 + x2 >= 1
 cover24: x25 + x15 + x9 + x7 >= 1
 cover25: x29 >= 1
 cover26: x25 + x14 + x11 + x4 + x2 >= 1
 cover27: x29 + x20 + x5 + x4 >= 1
 cover28: x18 + x17 >= 1
 cover29: x30 + x13 + x5 >= 1
 cover30: x29 + x28 + x27 + x7 + x6 >= 1
 cover31: x21 + x7 + x4 + x3 >= 1
 cover32: x13 + x6 + x4 >= 1
 cover33: x11 + x10 + x7 + x1 >= 1
 cover34: x30 + x11 + x9 >= 1
 cover35: x23 + x18 >= 1
 cover36: x26 + x25 + x23 >= 1
 cover37: x19 + x17 + x12 >= 1
 cover38: x16 + x5 + x3 >= 1
 cover39: x30 + x20 + x17 + x6 + x3 >= 1
 cover40: x24 + x13 >= 1
Bounds
 0 <= x30 <= 1
 0 <= x29 <= 1
 0 <= x28 <= 1
 0 <= x27 <= 1
 0 <= x26 <= 1
 0 <= x25 <= 1
 0 <= x24 <= 1
 0 <= x23 <= 1
 0 <= x22 <= 1
 0 <= x21 <= 1
 0 <= x20 <= 1
 0 <= x19 <= 1
 0 <= x18 <= 1
 0 <= x17 <= 1
 0 <= x16 <= 1
 0 <= x15 <= 1
 0 <= x14 <= 1
 0 <= x13 <= 1
 0 <= x12 <= 1
 0 <= x11 <= 1
 0 <= x10 <= 1
 0 <= x9 <= 1
 0 <= x8 <= 1
 0 <= x7 <= 1
 0 <= x6 <= 1
 0 <= x5 <= 1
 0 <= x4 <= 1
 0 <= x3 <= 1
 0 <= x2 <= 1
 0 <= x1 <= 1
Generals
 x30  x29  x28  x27  x26  x25  x24  x23  x22  x21  x20  x19  x18  x17  x16 
 x15  x14  x13  x12  x11  x10  x9  x8  x7  x6  x5  x4  x3  x2  x1 
End
